5 5
4 77 3 26 1 68 2 79 0 16
0 53 1 19 4 47 3 90 2 32
2 70 4 70 3 61 1 5 0 59
0 2 4 2 2 3 3 70 1 95
1 43 0 5 4 50 3 10 2 27
-1
0 1 4 5
0 3 5
0 1 2 3 5
0 2 5
0 1 2 4 5
-2
90 390 411
131 272
72 212 227 357
5 261
56 67 128 147

343 6
15 5 21 4 14
20 6 2 19 13
17 10 3 9 24
18 1 8 12 23
16 0 7 11 22
